32      4       
10      10      10      10      
0       0       0       0       0       2       2       3       
6       0       1       1       1       2       4       5       
8       1       3       8       0       1       4       
4       0       7       2       6       3       6       7       10      
2       0       4       6       2       1       6       
8       3       0       2       7       2       8       9       
1       7       0       3       5       2       8       9       
6       6       4       4       0       2       11      12      
7       5       4       2       0       1       11      
6       5       2       3       0       1       11      
8       3       4       0       3       2       13      14      
5       3       0       4       1       2       13      14      
9       4       4       0       5       2       15      17      
9       3       9       2       0       2       16      17      
1       4       0       10      6       2       16      18      
1       8       0       5       5       2       19      20      
5       5       3       0       2       1       18      
4       4       5       0       3       3       21      23      24      
4       0       3       7       3       3       21      23      24      
4       0       4       4       5       2       22      23      
3       7       3       2       0       1       22      
8       2       4       0       6       2       25      26      
3       5       4       0       3       2       25      26      
5       2       5       4       0       2       26      31      
4       3       1       5       0       3       27      29      31      
5       1       7       3       0       2       27      29      
7       4       4       4       0       1       28      
7       4       4       0       5       1       30      
6       2       0       4       4       1       30      
7       1       0       3       4       1       32      
8       8       3       0       4       1       32      
0       0       0       0       0       0       
